Gurobi Optimizer version 9.1.0 build v9.1.0rc0 (linux64)
Thread count: 8 physical cores, 16 logical processors, using up to 16 threads
Optimize a model with 17696 rows, 16320 columns and 92780 nonzeros
Model fingerprint: 0x9cafaeb9
Variable types: 0 continuous, 16320 integer (16320 binary)
Coefficient statistics:
  Matrix range     [1e+00, 1e+00]
  Objective range  [1e+01, 1e+04]
  Bounds range     [1e+00, 1e+00]
  RHS range        [1e+00, 1e+02]
Presolve removed 20 rows and 20 columns
Presolve time: 0.22s
Presolved: 17676 rows, 16300 columns, 92740 nonzeros
Variable types: 0 continuous, 16300 integer (16300 binary)
Found heuristic solution: objective 92604.000000

Concurrent LP optimizer: primal simplex, dual simplex, and barrier
Showing barrier log only...

Root barrier log...

Ordering time: 0.04s

Barrier statistics:
 Dense cols : 160
 AA' NZ     : 8.094e+04
 Factor NZ  : 3.691e+05 (roughly 17 MBytes of memory)
 Factor Ops : 1.799e+07 (less than 1 second per iteration)
 Threads    : 6

                  Objective                Residual
Iter       Primal          Dual         Primal    Dual     Compl     Time
   0   3.95900784e+06 -5.95844165e+04  3.25e+01 0.00e+00  4.44e+02     0s
   1   1.47302075e+05 -1.06847218e+06  4.26e-01 2.09e+02  2.78e+01     0s
   2   1.05326637e+05 -1.97941733e+05  5.01e-02 9.27e+02  6.07e+00     1s
   3   1.00005298e+05  3.30177309e+04  2.58e-02 1.69e+02  1.29e+00     1s
   4   8.72225435e+04  6.71586772e+04  1.44e-03 1.03e+03  3.41e-01     1s
   5   8.33263828e+04  7.31259997e+04  6.53e-04 5.03e+02  1.74e-01     1s
   6   8.13179623e+04  7.55951721e+04  3.23e-04 2.87e+02  9.75e-02     1s
   7   8.07251134e+04  7.64377791e+04  2.39e-04 2.17e+02  7.30e-02     1s
   8   8.01863343e+04  7.71242916e+04  1.65e-04 1.59e+02  5.18e-02     1s
   9   8.00097655e+04  7.75182048e+04  1.42e-04 1.24e+02  4.25e-02     1s
  10   7.98205558e+04  7.77657916e+04  1.18e-04 1.01e+02  3.51e-02     1s
  11   7.94939521e+04  7.80609874e+04  7.78e-05 7.25e+01  2.42e-02     1s
  12   7.93006338e+04  7.82919201e+04  5.47e-05 5.06e+01  1.70e-02     1s
  13   7.91859128e+04  7.83833090e+04  4.11e-05 4.22e+01  1.34e-02     1s
  14   7.91026486e+04  7.84641281e+04  3.10e-05 3.45e+01  1.06e-02     1s
  15   7.90611960e+04  7.85376585e+04  2.64e-05 2.79e+01  8.73e-03     1s
  16   7.90244485e+04  7.85818093e+04  2.20e-05 2.38e+01  7.37e-03     1s
  17   7.89797725e+04  7.86236919e+04  1.69e-05 1.97e+01  5.90e-03     1s
  18   7.89516141e+04  7.86801697e+04  1.37e-05 1.42e+01  4.55e-03     1s
  19   7.89070482e+04  7.86999199e+04  8.91e-06 1.21e+01  3.40e-03     1s
  20   7.88883922e+04  7.87434921e+04  6.89e-06 7.97e+00  2.41e-03     1s
  21   7.88666101e+04  7.87576244e+04  4.62e-06 6.60e+00  1.78e-03     1s
  22   7.88518232e+04  7.87793313e+04  3.05e-06 4.39e+00  1.18e-03     1s
  23   7.88428143e+04  7.87905322e+04  2.15e-06 3.19e+00  8.53e-04     1s
  24   7.88403596e+04  7.87968082e+04  1.90e-06 2.55e+00  7.17e-04     1s
  25   7.88333606e+04  7.88075590e+04  1.22e-06 1.37e+00  4.33e-04     1s
  26   7.88273131e+04  7.88138869e+04  6.51e-07 6.81e-01  2.27e-04     1s
  27   7.88248618e+04  7.88166108e+04  4.19e-07 3.87e-01  1.41e-04     1s
  28   7.88222586e+04  7.88175658e+04  1.82e-07 2.84e-01  7.68e-05     1s
  29   7.88207704e+04  7.88197773e+04  4.00e-08 4.51e-02  1.71e-05     1s
  30   7.88202487e+04  7.88202418e+04  1.57e-10 3.35e-04  1.18e-07     1s
  31   7.88202459e+04  7.88202459e+04  1.14e-11 6.36e-08  1.22e-12     1s

Barrier solved model in 31 iterations and 1.10 seconds
Optimal objective 7.88202459e+04


Solved with barrier

Root relaxation: objective 7.882025e+04, 1518 iterations, 0.87 seconds

    Nodes    |    Current Node    |     Objective Bounds      |     Work
 Expl Unexpl |  Obj  Depth IntInf | Incumbent    BestBd   Gap | It/Node Time

     0     0 78820.2459    0 1671 92604.0000 78820.2459  14.9%     -    2s
H    0     0                    82193.000000 78820.2459  4.10%     -    2s
H    0     0                    79472.000000 78820.2459  0.82%     -    2s
H    0     0                    79338.000000 78820.2459  0.65%     -    2s
     0     0 78833.1573    0 1729 79338.0000 78833.1573  0.64%     -    4s
     0     0 78833.2575    0 1727 79338.0000 78833.2575  0.64%     -    5s
     0     0 78835.9239    0 1712 79338.0000 78835.9239  0.63%     -    5s
     0     0 78835.9239    0 1712 79338.0000 78835.9239  0.63%     -    5s
     0     0 78852.6896    0 1729 79338.0000 78852.6896  0.61%     -    6s
     0     0 78853.0856    0 1732 79338.0000 78853.0856  0.61%     -    6s
     0     0 78853.1187    0 1733 79338.0000 78853.1187  0.61%     -    6s
     0     0 78853.1600    0 1735 79338.0000 78853.1600  0.61%     -    6s
     0     0 78991.3424    0 1743 79338.0000 78991.3424  0.44%     -    8s
     0     0 78991.3424    0 1743 79338.0000 78991.3424  0.44%     -    8s
     0     0 78991.3424    0 1741 79338.0000 78991.3424  0.44%     -    8s
     0     0 78991.3424    0 1742 79338.0000 78991.3424  0.44%     -    8s
     0     0 78991.3424    0 1819 79338.0000 78991.3424  0.44%     -   10s
     0     0 78991.6292    0 1821 79338.0000 78991.6292  0.44%     -   10s
     0     0 78991.6292    0 1822 79338.0000 78991.6292  0.44%     -   11s
     0     0 78991.6292    0 1826 79338.0000 78991.6292  0.44%     -   11s
     0     0 79006.8182    0 1825 79338.0000 79006.8182  0.42%     -   11s
     0     0 79006.8182    0 1816 79338.0000 79006.8182  0.42%     -   12s
     0     2 79006.8182    0 1816 79338.0000 79006.8182  0.42%     -   14s
     1     4 79021.7592    1 1788 79338.0000 79006.8182  0.42%  2730   17s
    19    10 79176.0833    5 1529 79338.0000 79102.0000  0.30%  1128   21s
H   29    14                    79271.000000 79176.2500  0.12%   980   22s
*   65     0              10    79268.000000 79258.0000  0.01%   476   23s

Cutting planes:
  Gomory: 3
  Zero half: 104

Explored 74 nodes (35199 simplex iterations) in 23.41 seconds
Thread count was 16 (of 16 available processors)

Solution count 6: 79268 79271 79338 ... 92604

Optimal solution found (tolerance 1.00e-04)
Best objective 7.926800000000e+04, best bound 7.926800000000e+04, gap 0.0000%

User-callback calls 5803, time in user-callback 0.07 sec
['/opt/local/stow/gurobi910/linux64/lib/libgurobi91.so']
Optimal Result: runtime=23.41sec; objective=79268; gap=0.0000%
Solution written to /autofs/unityaccount/cremi/mdeboute/Bureau/multi-period-flp/solution//instSingle_I20_J100_T8_1_result.txt
